\ This file was automatically generated by Zimpl
\ var x1 >= 0;
\ var x2 >= 0;
\ var x3 >= 0;
\ var x4 >= 0;
\ var x5 >= 0;
\ var x6 >= 0;
\ var x7 >= 0;
\ minimize Z:     3*x1 + 2*x2 - 3*x3 - 6*x4 + 10*x5 - 5*x6 + 4*x7;
\ subto c1:     1*x1 + 2*x2 + 0*x3 + 1*x4 + 0*x5 - 6*x6 + 3*x7 == 11;
\ subto c2:     0*x1 + 1*x2 + 1*x3 + 3*x4 - 2*x5 - 1*x6 - 1*x7 == 6;
\ subto c3:     1*x1 + 2*x2 - 3*x3 - 3*x4 - 1*x5 - 5*x6 + 1*x7 == 13;
\Problem name: pp
Minimize
 Z:  +3 x1 +2 x2 -3 x3 -6 x4 +10 x5 -5 x6
  +4 x7
Subject to
 c1_1:
  +3 x7 -6 x6 + x4 +2 x2 + x1 = 11
 c2_1:
  - x7 - x6 -2 x5 +3 x4 + x3 + x2
  = 6
 c3_1:
  + x7 -5 x6 - x5 -3 x4 -3 x3 +2 x2
  + x1 = 13
Bounds
 0 <= x1 <= +inf
 0 <= x2 <= +inf
 0 <= x3 <= +inf
 0 <= x4 <= +inf
 0 <= x5 <= +inf
 0 <= x6 <= +inf
 0 <= x7 <= +inf
End
